47150.0
45603.0
45983.0
46083.0
47129.0
45879.0
44777.0
46602.0
47525.0
44369.0
47884.0
44133.0
46553.0
45710.0
45459.0
48355.0
47016.0
46936.0
45907.0
46404.0
48181.0
44569.0
45688.0
47367.0
43748.0
46539.0
45573.0
45935.0
45053.0
46083.0
